(declare-fun var0 () String)
(assert (str.in.re var0 (re.++ (re.union (re.+ (str.to.re "o")) (re.union (str.to.re "p") (str.to.re "qqq"))) (re.++ (re.union (re.+ (str.to.re "m")) (re.* (str.to.re "n"))) (re.++ (re.union (re.* (str.to.re "k")) (re.+ (str.to.re "lll"))) (re.++ (re.union (re.union (str.to.re "h") (str.to.re "iii")) (re.+ (str.to.re "jjj"))) (re.++ (re.+ (re.union (str.to.re "ff") (str.to.re "gg"))) (re.++ (re.+ (re.+ (str.to.re "ee"))) (re.++ (re.+ (re.* (str.to.re "d"))) (re.++ (re.union (re.+ (str.to.re "bbb")) (re.+ (str.to.re "cc"))) (re.++ (re.* (re.+ (str.to.re "aaa"))) (re.++ (re.union (re.+ (str.to.re "88")) (re.* (str.to.re "9"))) (re.++ (re.+ (re.* (str.to.re "777"))) (re.++ (re.union (re.+ (str.to.re "5")) (re.+ (str.to.re "6"))) (re.++ (re.union (re.* (str.to.re "3")) (re.+ (str.to.re "444"))) (re.++ (re.union (re.+ (str.to.re "111")) (re.+ (str.to.re "22"))) (re.++ (re.union (re.union (str.to.re "}") (str.to.re "~~")) (re.* (str.to.re "00"))) (re.++ (re.* (re.union (str.to.re "{") (str.to.re "|"))) (re.++ (re.* (re.* (str.to.re "```"))) (re.++ (re.union (re.* (str.to.re "^^^")) (re.* (str.to.re "_"))) (re.++ (re.+ (re.union (str.to.re "\\\\\\") (str.to.re "]]"))) (re.++ (re.* (re.union (str.to.re "@") (str.to.re "[[["))) (re.++ (re.union (re.* (str.to.re ">")) (re.+ (str.to.re "??"))) (re.++ (re.* (re.union (str.to.re "<") (str.to.re "==="))) (re.++ (re.* (re.union (str.to.re ":") (str.to.re ";;"))) (re.++ (re.union (re.union (str.to.re "---") (str.to.re "...")) (re.+ (str.to.re "//"))) (re.++ (re.+ (re.+ (str.to.re ","))) (re.++ (re.+ (re.+ (str.to.re "+"))) (re.++ (re.union (re.union (str.to.re "((") (str.to.re ")))")) (re.* (str.to.re "**"))) (re.++ (re.* (re.* (str.to.re "'"))) (re.++ (re.+ (re.union (str.to.re "%%%") (str.to.re "&&"))) (re.++ (re.union (re.union (str.to.re "!!") (str.to.re """")) (re.union (str.to.re "##") (str.to.re "$"))) (re.++ (re.* (re.union (str.to.re "YY") (str.to.re "ZZZ"))) (re.++ (re.union (re.+ (str.to.re "VV")) (re.union (str.to.re "W") (str.to.re "XXX"))) (re.++ (re.+ (re.union (str.to.re "TT") (str.to.re "UUU"))) (re.++ (re.union (re.* (str.to.re "QQQ")) (re.union (str.to.re "RRR") (str.to.re "SS"))) (re.++ (re.union (re.* (str.to.re "OO")) (re.+ (str.to.re "PP"))) (re.++ (re.* (re.union (str.to.re "M") (str.to.re "NN"))) (re.++ (re.union (re.+ (str.to.re "KKK")) (re.+ (str.to.re "LL"))) (re.++ (re.+ (re.union (str.to.re "III") (str.to.re "JJJ"))) (re.++ (re.+ (re.+ (str.to.re "HH"))) (re.++ (re.+ (re.* (str.to.re "GG"))) (re.++ (re.union (re.+ (str.to.re "D")) (re.union (str.to.re "E") (str.to.re "FF"))) (re.++ (re.union (re.* (str.to.re "AA")) (re.union (str.to.re "B") (str.to.re "CCC"))) (re.++ (re.union (re.+ (str.to.re "xxx")) (re.union (str.to.re "y") (str.to.re "z"))) (re.++ (re.union (re.* (str.to.re "uu")) (re.union (str.to.re "v") (str.to.re "w"))) (re.++ (re.* (re.union (str.to.re "s") (str.to.re "ttt"))) (re.++ (re.* (re.+ (str.to.re "rrr"))) (re.++ (re.+ (re.* (str.to.re "q"))) (re.++ (re.union (re.* (str.to.re "ooo")) (re.* (str.to.re "pp"))) (re.++ (re.union (re.union (str.to.re "kk") (str.to.re "l")) (re.union (str.to.re "mmm") (str.to.re "n"))) (re.++ (re.+ (re.* (str.to.re "jjj"))) (re.++ (re.union (re.+ (str.to.re "hh")) (re.* (str.to.re "ii"))) (re.++ (re.union (re.* (str.to.re "fff")) (re.* (str.to.re "ggg"))) (re.++ (re.+ (re.* (str.to.re "ee"))) (re.++ (re.* (re.union (str.to.re "c") (str.to.re "ddd"))) (re.++ (re.union (re.+ (str.to.re "aaa")) (re.* (str.to.re "bb"))) (re.++ (re.union (re.+ (str.to.re "8")) (re.* (str.to.re "9"))) (re.++ (re.* (re.+ (str.to.re "777"))) (re.++ (re.union (re.union (str.to.re "3") (str.to.re "444")) (re.union (str.to.re "5") (str.to.re "66"))) (re.++ (re.+ (re.* (str.to.re "22"))) (re.++ (re.* (re.union (str.to.re "000") (str.to.re "11"))) (re.++ (re.* (re.union (str.to.re "}}}") (str.to.re "~"))) (re.++ (re.* (re.+ (str.to.re "||"))) (re.++ (re.* (re.* (str.to.re "{{"))) (re.++ (re.+ (re.+ (str.to.re "```"))) (re.++ (re.* (re.union (str.to.re "^^^") (str.to.re "__"))) (re.++ (re.union (re.union (str.to.re "[") (str.to.re "\\\\")) (re.+ (str.to.re "]]"))) (re.++ (re.+ (re.+ (str.to.re "@"))) (re.++ (re.union (re.* (str.to.re ">>")) (re.+ (str.to.re "??"))) (re.++ (re.* (re.+ (str.to.re "=="))) (re.++ (re.union (re.union (str.to.re ":::") (str.to.re ";;")) (re.* (str.to.re "<"))) (re.++ (re.* (re.+ (str.to.re "//"))) (re.++ (re.* (re.union (str.to.re "---") (str.to.re "."))) (re.++ (re.+ (re.union (str.to.re "++") (str.to.re ",,"))) (re.++ (re.+ (re.+ (str.to.re "**"))) (re.++ (re.+ (re.+ (str.to.re ")))"))) (re.++ (re.+ (re.* (str.to.re "((("))) (re.++ (re.+ (re.+ (str.to.re "'"))) (re.++ (re.* (re.* (str.to.re "&"))) (re.++ (re.+ (re.union (str.to.re "$") (str.to.re "%%%"))) (re.++ (re.* (re.union (str.to.re """""") (str.to.re "##"))) (re.++ (re.+ (re.* (str.to.re "!!"))) (re.++ (re.union (re.union (str.to.re "XXX") (str.to.re "YY")) (re.+ (str.to.re "ZZ"))) (re.++ (re.union (re.* (str.to.re "UU")) (re.union (str.to.re "VV") (str.to.re "W"))) (re.++ (re.union (re.+ (str.to.re "SS")) (re.+ (str.to.re "TT"))) (re.++ (re.* (re.union (str.to.re "QQ") (str.to.re "RR"))) (re.++ (re.+ (re.+ (str.to.re "PP"))) (re.++ (re.union (re.* (str.to.re "NN")) (re.+ (str.to.re "OOO"))) (re.++ (re.+ (re.* (str.to.re "MM"))) (re.++ (re.* (re.+ (str.to.re "LLL"))) (re.++ (re.* (re.* (str.to.re "K"))) (re.++ (re.* (re.* (str.to.re "J"))) (re.++ (re.+ (re.union (str.to.re "HHH") (str.to.re "I"))) (re.++ (re.union (re.+ (str.to.re "FFF")) (re.* (str.to.re "GGG"))) (re.++ (re.union (re.union (str.to.re "CC") (str.to.re "DD")) (re.* (str.to.re "EE"))) (re.++ (re.union (re.union (str.to.re "z") (str.to.re "AA")) (re.* (str.to.re "BBB"))) (re.++ (re.+ (re.+ (str.to.re "yy"))) (re.++ (re.* (re.* (str.to.re "x"))) (re.++ (re.+ (re.union (str.to.re "v") (str.to.re "w"))) (re.++ (re.* (re.union (str.to.re "tt") (str.to.re "uu"))) (re.++ (re.union (re.* (str.to.re "qq")) (re.union (str.to.re "r") (str.to.re "s"))) (re.++ (re.+ (re.+ (str.to.re "ppp"))) (re.++ (re.union (re.* (str.to.re "n")) (re.* (str.to.re "ooo"))) (re.++ (re.* (re.* (str.to.re "mmm"))) (re.++ (re.+ (re.union (str.to.re "kk") (str.to.re "lll"))) (re.++ (re.union (re.+ (str.to.re "h")) (re.union (str.to.re "iii") (str.to.re "j"))) (re.++ (re.* (re.* (str.to.re "g"))) (re.++ (re.* (re.* (str.to.re "f"))) (re.++ (re.+ (re.* (str.to.re "e"))) (re.++ (re.+ (re.* (str.to.re "ddd"))) (re.++ (re.+ (re.+ (str.to.re "c"))) (re.++ (re.+ (re.+ (str.to.re "bbb"))) (re.++ (re.+ (re.union (str.to.re "9") (str.to.re "a"))) (re.++ (re.* (re.union (str.to.re "777") (str.to.re "888"))) (re.++ (re.* (re.+ (str.to.re "66"))) (re.++ (re.* (re.union (str.to.re "4") (str.to.re "5"))) (re.++ (re.union (re.* (str.to.re "2")) (re.* (str.to.re "3"))) (re.++ (re.* (re.* (str.to.re "1"))) (re.++ (re.+ (re.union (str.to.re "~") (str.to.re "000"))) (re.++ (re.+ (re.union (str.to.re "|||") (str.to.re "}"))) (re.++ (re.+ (re.* (str.to.re "{{"))) (re.++ (re.* (re.* (str.to.re "```"))) (re.++ (re.union (re.+ (str.to.re "^^")) (re.+ (str.to.re "__"))) (re.++ (re.+ (re.* (str.to.re "]"))) (re.++ (re.union (re.* (str.to.re "[[[")) (re.+ (str.to.re "\\\\"))) (re.++ (re.* (re.+ (str.to.re "@@"))) (re.++ (re.union (re.union (str.to.re "==") (str.to.re ">")) (re.* (str.to.re "???"))) (re.++ (re.+ (re.+ (str.to.re "<"))) (re.++ (re.+ (re.union (str.to.re ":") (str.to.re ";"))) (re.++ (re.* (re.* (str.to.re "//"))) (re.++ (re.union (re.union (str.to.re ",,,") (str.to.re "-")) (re.+ (str.to.re "..."))) (re.++ (re.union (re.+ (str.to.re "))")) (re.union (str.to.re "**") (str.to.re "++"))) (re.++ (re.+ (re.+ (str.to.re "("))) (re.++ (re.* (re.union (str.to.re "&&&") (str.to.re "'"))) (re.++ (re.+ (re.* (str.to.re "%%%"))) (re.++ (re.union (re.union (str.to.re """""") (str.to.re "#")) (re.+ (str.to.re "$$$"))) (re.++ (re.* (re.+ (str.to.re "!"))) (re.++ (re.+ (re.* (str.to.re "Z"))) (re.++ (re.union (re.+ (str.to.re "XXX")) (re.+ (str.to.re "Y"))) (re.++ (re.union (re.union (str.to.re "UUU") (str.to.re "V")) (re.* (str.to.re "WWW"))) (re.++ (re.* (re.union (str.to.re "SSS") (str.to.re "TT"))) (re.++ (re.+ (re.union (str.to.re "QQQ") (str.to.re "RRR"))) (re.++ (re.* (re.union (str.to.re "OO") (str.to.re "PPP"))) (re.++ (re.* (re.+ (str.to.re "NN"))) (re.++ (re.+ (re.union (str.to.re "LL") (str.to.re "M"))) (re.++ (re.* (re.+ (str.to.re "KKK"))) (re.++ (re.* (re.+ (str.to.re "J"))) (re.++ (re.* (re.+ (str.to.re "I"))) (re.++ (re.* (re.* (str.to.re "HHH"))) (re.++ (re.union (re.union (str.to.re "EEE") (str.to.re "FF")) (re.+ (str.to.re "GG"))) (re.++ (re.* (re.+ (str.to.re "D"))) (re.++ (re.union (re.+ (str.to.re "A")) (re.union (str.to.re "B") (str.to.re "C"))) (re.++ (re.union (re.+ (str.to.re "yyy")) (re.* (str.to.re "zz"))) (re.++ (re.+ (re.union (str.to.re "w") (str.to.re "xxx"))) (re.++ (re.* (re.* (str.to.re "v"))) (re.++ (re.union (re.union (str.to.re "sss") (str.to.re "t")) (re.* (str.to.re "u"))) (re.++ (re.+ (re.union (str.to.re "q") (str.to.re "r"))) (re.++ (re.union (re.* (str.to.re "nnn")) (re.union (str.to.re "o") (str.to.re "p"))) (re.++ (re.+ (re.+ (str.to.re "mm"))) (re.++ (re.+ (re.+ (str.to.re "lll"))) (re.++ (re.* (re.* (str.to.re "kkk"))) (re.++ (re.+ (re.union (str.to.re "iii") (str.to.re "jj"))) (re.++ (re.union (re.* (str.to.re "g")) (re.+ (str.to.re "hh"))) (re.++ (re.+ (re.union (str.to.re "eee") (str.to.re "f"))) (re.++ (re.union (re.union (str.to.re "bbb") (str.to.re "cc")) (re.+ (str.to.re "dd"))) (re.++ (re.* (re.* (str.to.re "a"))) (re.++ (re.union (re.+ (str.to.re "777")) (re.union (str.to.re "8") (str.to.re "99"))) (re.++ (re.union (re.union (str.to.re "4") (str.to.re "55")) (re.+ (str.to.re "6"))) (re.++ (re.* (re.union (str.to.re "22") (str.to.re "33"))) (re.* (re.union (str.to.re "00") (str.to.re "1")))))))))))))))))))))))))))))))))))))))))))))))))))))))))))))))))))))))))))))))))))))))))))))))))))))))))))))))))))))))))))))))))))))))))))))))))))))))))))))))))))))))))))))
(check-sat)